c --- [ banner ] -------------------------------------------------------------
c 
c CaDiCaL Radically Simplified CDCL SAT Solver
c Copyright (c) 2016-2021 A. Biere, M. Fleury, N. Froleyks
c 
c Version 1.5.2 a5f15211db36c3956764e18194dd5bd63bf3b5e6
c g++ (GCC) 9.3.0 -Wall -Wextra -O3 -DNDEBUG
c Fri Oct 21 01:27:37 EDT 2022 Linux gra-login3 3.10.0-1160.66.1.el7.x86_64 x86_64
c 
c --- [ limit ] --------------------------------------------------------------
c 
c setting conflict limit to 200000 conflicts (due to '200000')
c 
c --- [ parsing input ] ------------------------------------------------------
c 
c reading DIMACS file from '33.cubes2959.adj'
c opening file to read '33.cubes2959.adj'
c found 'p cnf 6160 1595478' header
c parsed 1595478 clauses in 21.01 seconds process time
c closing file '33.cubes2959.adj'
c after reading 1457566799 bytes 1390.0 MB
c 
c --- [ options ] ------------------------------------------------------------
c 
c all options are set to their default value
c 
c --- [ solving ] ------------------------------------------------------------
c 
c time measured in process time since initialization
c 
c  seconds    reductions  redundant   irredundant
c          MB     restarts       trail       variables
c            level   conflicts       glue         remaining
c 
c * 21.01 1389  0 0   0    0    0  0% 0 1595422 2333 38%
c { 22.00 1441  0 0   0    0    0  0% 0 1595422 2333 38%
c i 23.99 1496 726 0   2   22   20 35% 6 1595422 2332 38%
c i 24.05 1496 665 0   2   24   21 34% 8 1595422 2331 38%
c i 24.10 1496 614 0   3   26   22 34% 9 1595422 2330 38%
c i 28.78 1527 125 0  24  215  180 28% 23 1595422 2329 38%
c - 34.71 1512 119 1  42  300  252 27% 29 422851 2329 38%
c i 35.33 1425 115 1  48  335  282 27% 29 422851 2327 38%
c i 35.62 1425 113 1  49  346  291 27% 28 422851 2326 38%
c i 35.68 1425 112 1  49  350  294 27% 28 422851 2325 38%
c i 35.75 1426 111 1  49  359  302 27% 28 422851 2324 38%
c i 36.02 1426 107 1  53  388  325 28% 29 422851 2323 38%
c i 36.21 1426 106 1  59  408  344 28% 31 422851 2322 38%
c i 36.78 1426 106 1  67  433  366 28% 31 422851 2321 38%
c i 37.28 1427 108 1  74  463  390 28% 33 422851 2320 38%
c i 38.23 1427 91 1  88  636  530 28% 33 422851 2319 38%
c i 38.27 1427 90 1  88  651  543 28% 33 422851 2318 38%
c i 38.27 1427 90 1  88  653  544 28% 33 422851 2317 38%
c i 39.40 1428 84 1 105  797  662 29% 33 422851 2316 38%
c i 39.59 1428 80 1 105  870  715 29% 32 422851 2315 38%
c 
c  seconds    reductions  redundant   irredundant
c          MB     restarts       trail       variables
c            level   conflicts       glue         remaining
c 
c i 40.06 1428 79 1 106  928  761 29% 33 422851 2314 38%
c } 40.22 1428 76 1 106 1000  808 29% 32 422851 2314 38%
c [ 40.22 1428  0 1 106 1000  808  0% 0 422851 2314 38%
c O 40.24 1429 22 1 106 1002  810 22% 21 422851 2314 38%
c - 41.75 1622 27 2 106 1275  904 32% 22 422806 2314 38%
c - 43.03 1622 26 3 107 2738 1414 32% 23 422806 2314 38%
c ] 43.18 1622 27 3 107 3002 1581 32% 23 422806 2314 38%
c { 43.18 1622 76 3 107 3002 1581 29% 32 422806 2314 38%
c F 43.62 1622 76 3 107 3003 1582 24% 32 422806 2314 38%
c i 44.27 1622 72 3 107 3085 1649 47% 31 422806 2313 38%
c i 44.97 1622 71 3 109 3172 1728 44% 31 422806 2312 38%
c i 46.23 1622 63 3 109 3544 2027 46% 30 422806 2311 38%
c i 47.58 1622 60 3 111 3878 2291 47% 30 422806 2300 37%
c i 50.66 1622 64 3 149 4059 2448 46% 31 422806 2293 37%
c - 54.56 1617 61 4 190 4690 2160 46% 30 422559 2293 37%
c 2 56.01 1617 59 4 192 5001 3362 46% 30 422551 2286 37%
c p 64.45 1617 59 4 192 5001 6434 46% 30 422551 2229 36%
c d 65.13 1617 59 4 192 5001 6271 46% 30 382514 2227 36%
c } 66.72 1617 53 4 196 5813 6828 47% 29 382514 2227 36%
c 1 66.72 1617 53 4 196 5813 6828 47% 29 382514 2227 36%
c 
c --- [ writing output ] -----------------------------------------------------
c 
c writing simplified CNF to DIMACS file 'simp/33.cubes2959.adj.simp1'
c 
c  seconds    reductions  redundant   irredundant
c          MB     restarts       trail       variables
c            level   conflicts       glue         remaining
c 
c * 66.72 1617 53 4 196 5813 6828 47% 29 382514 2227 36%
c opening file to write 'simp/33.cubes2959.adj.simp1'
c writing 'p cnf 6160 382514' header
c closing file 'simp/33.cubes2959.adj.simp1'
c after writing 185017686 bytes 176.4 MB
c wrote 382514 clauses in 1.33 seconds process time
c 
c --- [ writing extension ] --------------------------------------------------
c 
c writing extension stack to 'simp/33.cubes2959.adj.ext1'
c opening file to write 'simp/33.cubes2959.adj.ext1'
c closing file 'simp/33.cubes2959.adj.ext1'
c after writing 11802 bytes 0.0 MB
c wrote 795 witnesses in 0.00 seconds process time
c 
c --- [ result ] -------------------------------------------------------------
c 
s SATISFIABLE
c 
c --- [ run-time profiling ] -------------------------------------------------
c 
c process time taken by individual solving procedures
c (percentage relative to process time for solving)
c 
c        35.90   78.54% search
c        31.95   69.90% unstable
c        21.01   45.95% parse
c         9.81   21.46% simplify
c         8.43   18.45% probe
c         2.96    6.47% stable
c         0.99    2.16% lucky
c         0.06    0.14% ternary
c   =================================
c        45.71   67.17% solve
c 
c last line shows process time for solving
c (percentage relative to total process time)
c 
c --- [ statistics ] ---------------------------------------------------------
c 
c chronological:              1587        27.30 %  of conflicts
c conflicts:                  5813       127.16    per second
c decisions:                 29706       649.82    per second
c fixed:                       783        12.71 %  of all variables
c learned:                    5650        97.20 %  per conflict
c learned_lits:            1035922       100.00 %  learned literals
c minimized:                     0         0.00 %  learned literals
c shrunken:                 579914        55.98 %  learned literals
c minishrunken:              89352         8.63 %  learned literals
c propagations:            1002368         0.02 M  per second
c reduced:                    1375        23.65 %  per conflict
c rephased:                      2      2906.50    interval
c restarts:                    196        29.66    interval
c stabilizing:                   1        34.44 %  of conflicts
c substituted:                   6         0.10 %  of all variables
c subsumed:                   1273         0.04 %  of all clauses
c ternary:                     944         0.54 %  of resolved
c weakened:                     12         2.00    average size
c 
c seconds are measured in process time for solving
c 
c --- [ resources ] ----------------------------------------------------------
c 
c total process time since initialization:        68.06    seconds
c total real time since initialization:           80.83    seconds
c maximum resident set size of process:         1814.93    MB
c 
c --- [ shutting down ] ------------------------------------------------------
c 
c exit 10
WARNING! DIMACS header mismatch: wrong number of variables.
============================[ Problem Statistics ]=============================
|                                                                             |
|  Number of variables:          6120                                         |
|  Number of clauses:          382514                                         |
|  Parse time:                   2.46 s                                       |
|  Simplification time:          0.06 s                                       |
|                                                                             |
============================[ Search Statistics ]====================================================
| Conflicts |          ORIGINAL         |          LEARNT          | Num Sols |      SUBGRAPHS      |
|           |    Vars  Clauses Literals |    Limit  Clauses Lit/Cl |          | Canonical Noncanon. |
=====================================================================================================
|       114 |    6028   382528 39984388 |     2000      114     88 |        0 |        21        14 |
|       265 |    6028   382529 39984406 |     2000      265     92 |        0 |        28        15 |
|       634 |    6028   382673 39988621 |     2000      634     71 |        0 |        98       159 |
|      1018 |    6028   382720 39989621 |     2000     1018     75 |        0 |       163       206 |
|      1584 |    6028   382780 39991670 |     2000     1584     84 |        0 |       194       266 |
|      2382 |    6028   382819 39992677 |     3601     1383     60 |        0 |       214       305 |
|      3600 |    6028   382898 39994206 |     3601     2601     80 |        0 |       235       384 |
|      5391 |    6028   382981 39996564 |     5006     2597     61 |        0 |       298       467 |
|      8182 |    6028   383210 40000761 |     6311     2893     43 |        0 |       379       696 |
|     12231 |    6028   383415 40004950 |     7558     3789     43 |        0 |       466       901 |
|     20065 |    6028   385483 40043510 |     8783     7848     56 |        0 |      1227      2969 |
|     29624 |    6028   386393 40059873 |    11201     8025     47 |        0 |      1375      3879 |
|     43615 |    6028   387410 40079288 |    13615    10230     60 |        0 |      1561      4896 |
|     64058 |    6028   388392 40097773 |    17216     8474     18 |        0 |      1776      5878 |
|     93770 |    6028   388912 40109575 |    20819    10589     23 |        0 |      1962      6398 |
|    138767 |    6028   390120 40133569 |    24411    22578     64 |        0 |      2322      7606 |
|    206214 |    6028   391883 40170560 |    30422    23036     56 |        0 |      2842      9369 |
|    305260 |    6028   392403 40186153 |    37609    21869     35 |        0 |      2967      9889 |
|    454912 |    6028   394266 40231935 |    46019    27331     36 |        0 |      3594     11752 |
|    687741 |    6028   405412 40464617 |    56815    31556     33 |        0 |      8145     22898 |
|   1023415 |    6028   408561 40555924 |    68820    56235     63 |        0 |      9736     26047 |
|   1528873 |    6028   415231 40745523 |    84417    67690     58 |        0 |     12902     32717 |
|   2303928 |    6028   442104 41397702 |   103626    95554     75 |        2 |     21906     59588 |
|   3458689 |    6028   474591 42082369 |   127633   100322     62 |        4 |     33543     92073 |
|   5197316 |    6028   529807 43278080 |   156421   142137     66 |       23 |     56408    147270 |
|   7806906 |    6028   614281 45070613 |   192418   144724     55 |       30 |     91787    231737 |
|  11676553 |    6028   696253 46800589 |   235637   173190     51 |       32 |    111637    313707 |
|  17675715 |    6028  1013903 53962608 |   289621   277336     51 |       37 |    167313    631352 |
=====================================================================================================
Number of solutions   : 53
Canonical subgraphs   : 304604         (7 /sec)
          order  3    : 1              (142857 /sec)
          order  4    : 1              (500000 /sec)
          order  5    : 1              (250000 /sec)
          order  6    : 1              (55556 /sec)
          order  7    : 1              (9009 /sec)
          order  8    : 2              (1358 /sec)
          order  9    : 4              (240 /sec)
          order 10    : 11             (53 /sec)
          order 11    : 58             (16 /sec)
          order 12    : 349            (8 /sec)
          order 13    : 2885           (8 /sec)
          order 14    : 19482          (6 /sec)
          order 15    : 106371         (7 /sec)
          order 16    : 160181         (6 /sec)
          order 17    : 11367          (6 /sec)
          order 18    : 2657           (6 /sec)
          order 19    : 610            (5 /sec)
          order 20    : 278            (7 /sec)
          order 21    : 291            (7 /sec)
          order 22    : 53             (1 /sec)
Noncanonical subgraphs: 1015113        (103 /sec)
          order  3    : 0              (-nan /sec)
          order  4    : 0              (-nan /sec)
          order  5    : 0              (-nan /sec)
          order  6    : 0              (-nan /sec)
          order  7    : 0              (-nan /sec)
          order  8    : 0              (-nan /sec)
          order  9    : 0              (-nan /sec)
          order 10    : 0              (-nan /sec)
          order 11    : 0              (-nan /sec)
          order 12    : 0              (-nan /sec)
          order 13    : 6972           (6668 /sec)
          order 14    : 87888          (1208 /sec)
          order 15    : 479686         (379 /sec)
          order 16    : 135031         (288 /sec)
          order 17    : 304516         (38 /sec)
          order 18    : 650            (33 /sec)
          order 19    : 114            (20 /sec)
          order 20    : 0              (-nan /sec)
          order 21    : 0              (-nan /sec)
Canonicity checking   : 46834 s
Noncanonicity checking: 9851.33 s
Total canonicity time : 56685.3 s
database reductions   : 284
restarts              : 33084
conflicts             : 24729754       (350 /sec)
decisions             : 31962475       (0.00 % random) (452 /sec)
propagations          : 2595034148     (36733 /sec)
conflict literals     : 2641987906     (56.33 % deleted)
actual reward         : 0.117922
Memory used           : 1049.00 MB
CPU time              : 70645.9 s

UNSATISFIABLE
